NAME : rand497856
COMMENT: random generated with id 497856
TYPE : TSP
DIMENSION : 6
EDGE_WEIGHT_TYPE : EUC_2D
NODE_COORD_SECTION
1 3.493286 0.288262
2 3.651376 1.616427
3 1.737551 1.940817
4 0.657804 3.224570
5 0.587234 2.160948
6 2.679929 0.226982
EOF
